P:143.0 398.0
P:64.0 65.0
P:444.0 53.0
P:374.0 248.0
P:496.0 247.0
P:458.0 208.0
P:508.0 51.0
P:577.0 136.0
P:521.0 207.0
P:521.0 229.0
P:589.0 275.0
P:593.0 455.0
P:468.0 453.0
P:505.0 308.0
P:465.0 281.0
P:469.0 382.0
P:440.0 441.0
P:401.0 282.0
P:376.0 298.0
P:386.0 443.0
P:323.0 441.0
P:341.0 378.0
P:296.0 376.0
P:288.0 441.0
P:277.0 320.0
P:383.0 105.0
P:250.0 107.0
P:246.0 150.0
P:203.0 151.0
P:203.0 102.0
P:171.0 104.0
P:165.0 324.0
P:222.0 341.0
P:173.0 362.0
P:223.0 388.0
P:223.0 450.0
P:157.0 455.0
